



8 8
2 19 0 6 1 10 3 11 5 18 7 10 6 1 4 14
4 13 5 8 7 5 6 11 0 9 2 13 1 18 3 1
2 8 5 1 0 2 6 16 1 12 3 10 7 18 4 8
6 14 1 5 5 10 7 14 4 14 0 1 2 16 3 5
4 11 3 7 0 13 7 16 2 15 5 11 6 12 1 4
4 18 1 9 2 3 0 12 3 5 6 1 5 14 7 8
5 2 0 3 1 3 7 15 4 11 3 8 2 13 6 12
1 8 6 18 4 8 3 13 7 13 0 10 5 8 2 3
